70
    1    46    47
    2    48    51
    3    49    43
    4    23    24
    5    10     5
    6     2     3
    7    53    46
    8    50    57
    9    58    62
   10     6    13
   11    55    51
   12    27    24
   13    10    15
   14     6    13
   15    69    68
   16    54    58
   17    54    60
   18    36    33
   19    53    50
   20    50    43
   21     1     6
   22    11     5
   23    11    15
   24    43    48
   25    68    66
   26    35    29
   27    46    47
   28     1     7
   29    60    57
   30    21    28
   31    45    51
   32    52    47
   33    59    55
   34    12     6
   35    18    11
   36    20    18
   37    21    21
   38    27    26
   39    20    19
   40    47    40
   41    47    44
   42    10     5
   43    34    41
   44    72    67
   45    29    36
   46     3    10
   47    28    31
   48    68    63
   49    12    12
   50     1     5
   51    19    12
   52    13     9
   53    56    62
   54    18    23
   55    47    48
   56     1     3
   57    51    58
   58    51    48
   59    26    19
   60    29    29
   61    20    24
   62    62    68
   63    54    51
   64    54    54
   65    74    69
   66    31    25
   67    20    18
   68    22    24
   69    45    39
   70    50    49
71
